n = 50;
C = 5227;
w = [13,12,156,489,210,201,142,144,436,157,424,428,358,301,53,149,188,94,149,63,132,75,216,364,471,161,146,326,119,413,496,166,348,10,318,77,19,139,49,121,146,371,375,299,98,293,367,110,21,42];
p = [13,12,156,489,210,201,142,144,436,157,424,428,358,301,53,149,188,94,149,63,132,75,216,364,471,161,146,326,119,413,496,166,348,10,318,77,19,139,49,121,146,371,375,299,98,293,367,110,21,42];
